NAME          COPTPROB
OBJSENSE
  MIN
ROWS
 N  __OBJ___
 L  C1      
 L  C3      
 L  C4      
 L  C5      
 L  C6      
 L  C8      
 L  C9      
 L  C12     
 L  C14     
 L  C17     
 L  C28     
 L  C30     
 L  C31     
 L  C32     
 L  C34     
 L  C35     
 L  C38     
 L  C39     
 L  C46     
 L  C48     
 L  C50     
 L  C52     
 L  C54     
 L  C57     
 L  C61     
 L  C62     
 L  C65     
 L  C66     
 L  C74     
 L  C75     
 L  C76     
 L  C78     
 L  C81     
 L  C82     
 L  C83     
 L  C86     
 L  C87     
 L  C88     
 L  C89     
 L  C90     
 L  C92     
 L  C96     
 L  C97     
 L  C99     
 L  C100    
 L  C101    
 L  C109    
 L  C112    
 L  C113    
 L  C118    
 L  C121    
 L  C124    
 L  C127    
 L  C130    
 L  C140    
 L  C142    
 L  C144    
 L  C145    
 L  C146    
 L  C147    
 L  C149    
 L  C151    
 L  C152    
 L  C160    
 L  C161    
 L  C163    
 L  C164    
 L  C166    
 L  C168    
 L  C169    
 L  C170    
 L  C171    
 L  C173    
 L  C175    
 L  C176    
 L  C178    
 L  C180    
 L  C184    
 L  C185    
 L  C193    
 L  C194    
 L  C197    
 L  C199    
 L  C203    
 L  C205    
 L  C206    
 L  C209    
 L  C210    
 L  C211    
 L  C212    
 L  C214    
 L  C215    
 L  C217    
 L  C218    
 L  C220    
 L  C221    
 L  C222    
 L  C223    
 L  C226    
 L  C227    
 L  C229    
 L  C232    
 L  C234    
 L  C236    
 L  C238    
 L  C240    
 L  C241    
 L  C242    
 L  C243    
 L  C247    
 L  C250    
 L  C251    
 L  C254    
 L  C255    
 L  C258    
 L  C259    
 L  C260    
 L  C262    
 L  C263    
 L  C265    
 L  C266    
 L  C273    
 L  C274    
 L  C276    
 L  C278    
 L  C280    
 L  C283    
 L  C285    
 L  C289    
 L  C290    
 L  C292    
 L  C294    
 L  C296    
 L  C299    
 L  C300    
 L  C301    
 L  C302    
 L  C308    
 L  C309    
 L  C312    
 L  C314    
 L  C315    
 L  C319    
 L  C321    
 L  C323    
 L  C324    
 L  C325    
 L  C326    
 L  C327    
 L  C330    
 L  C331    
 L  C334    
 L  C336    
 L  C340    
 L  C341    
 L  C344    
 L  C345    
 L  C348    
 L  C352    
 L  C357    
 L  C358    
 L  C360    
 L  C363    
 L  C364    
 L  C365    
 L  C366    
 L  C368    
 L  C369    
 L  C372    
 L  C375    
 L  C377    
 L  C378    
 L  C380    
 L  C381    
 L  C383    
 L  C386    
 L  C388    
 L  C389    
 L  C390    
 L  C391    
 L  C392    
 L  C393    
 L  C394    
COLUMNS
    MARKER    'MARKER'                 'INTORG'
    x4        __OBJ___  615
    x4        C61       -1
    x4        C176      -1
    x4        C241      -1
    x9        __OBJ___  191
    x9        C30       -1
    x9        C205      -1
    x9        C300      -1
    x14       __OBJ___  520
    x14       C5        -1
    x14       C6        -1
    x14       C341      -1
    x14       C390      -1
    x15       __OBJ___  187
    x15       C392      -1
    x16       __OBJ___  23
    x16       C152      -1
    x16       C378      -1
    x17       __OBJ___  992
    x17       C12       -1
    x17       C112      -1
    x17       C140      -1
    x17       C194      -1
    x17       C250      -1
    x17       C360      -1
    x18       __OBJ___  995
    x18       C28       -1
    x18       C76       -1
    x18       C178      -1
    x18       C369      -1
    x20       __OBJ___  587
    x20       C82       -1
    x20       C147      -1
    x20       C247      -1
    x24       __OBJ___  855
    x24       C4        -1
    x24       C100      -1
    x24       C149      -1
    x24       C309      -1
    x25       __OBJ___  677
    x25       C3        -1
    x25       C38       -1
    x25       C289      -1
    x25       C323      -1
    x26       __OBJ___  359
    x26       C221      -1
    x26       C251      -1
    x26       C276      -1
    x26       C308      -1
    x26       C345      -1
    x26       C372      -1
    x27       __OBJ___  114
    x27       C263      -1
    x27       C274      -1
    x27       C377      -1
    x28       __OBJ___  967
    x28       C83       -1
    x28       C173      -1
    x28       C222      -1
    x28       C321      -1
    x32       __OBJ___  16
    x32       C14       -1
    x32       C109      -1
    x32       C124      -1
    x33       __OBJ___  459
    x33       C46       -1
    x33       C236      -1
    x33       C368      -1
    x41       __OBJ___  720
    x41       C130      -1
    x41       C210      -1
    x41       C223      -1
    x41       C238      -1
    x41       C381      -1
    x44       __OBJ___  907
    x44       C32       -1
    x44       C54       -1
    x44       C78       -1
    x44       C96       -1
    x44       C259      -1
    x45       __OBJ___  691
    x45       C57       -1
    x45       C215      -1
    x45       C294      -1
    x45       C383      -1
    x46       __OBJ___  734
    x46       C87       -1
    x46       C193      -1
    x46       C217      -1
    x46       C386      -1
    x47       __OBJ___  924
    x47       C39       -1
    x47       C168      -1
    x47       C185      -1
    x47       C240      -1
    x47       C258      -1
    x48       __OBJ___  515
    x48       C206      -1
    x48       C285      -1
    x48       C301      -1
    x50       __OBJ___  394
    x50       C175      -1
    x50       C211      -1
    x50       C214      -1
    x50       C357      -1
    x51       __OBJ___  354
    x51       C86       -1
    x51       C92       -1
    x51       C145      -1
    x51       C226      -1
    x51       C292      -1
    x53       __OBJ___  811
    x53       C89       -1
    x53       C101      -1
    x53       C315      -1
    x53       C330      -1
    x54       __OBJ___  467
    x54       C171      -1
    x54       C232      -1
    x59       __OBJ___  269
    x59       C127      -1
    x59       C243      -1
    x59       C255      -1
    x59       C352      -1
    x61       __OBJ___  156
    x61       C227      -1
    x61       C262      -1
    x61       C336      -1
    x66       __OBJ___  133
    x66       C260      -1
    x66       C283      -1
    x67       __OBJ___  213
    x67       C314      -1
    x67       C326      -1
    x69       __OBJ___  210
    x69       C35       -1
    x69       C161      -1
    x69       C163      -1
    x70       __OBJ___  776
    x70       C34       -1
    x70       C164      -1
    x70       C302      -1
    x72       __OBJ___  674
    x72       C88       -1
    x72       C331      -1
    x72       C364      -1
    x73       __OBJ___  221
    x73       C142      -1
    x73       C160      -1
    x73       C229      -1
    x73       C363      -1
    x74       __OBJ___  547
    x74       C184      -1
    x74       C344      -1
    x74       C375      -1
    x76       __OBJ___  365
    x76       C50       -1
    x76       C113      -1
    x76       C170      -1
    x76       C273      -1
    x76       C296      -1
    x79       __OBJ___  714
    x79       C66       -1
    x79       C75       -1
    x79       C99       -1
    x79       C146      -1
    x79       C169      -1
    x79       C203      -1
    x79       C212      -1
    x79       C312      -1
    x79       C389      -1
    x80       __OBJ___  872
    x80       C97       -1
    x80       C166      -1
    x80       C199      -1
    x80       C358      -1
    x80       C393      -1
    x80       C394      -1
    x82       __OBJ___  893
    x82       C254      -1
    x82       C290      -1
    x82       C340      -1
    x82       C388      -1
    x84       __OBJ___  678
    x84       C62       -1
    x84       C265      -1
    x84       C365      -1
    x87       __OBJ___  503
    x87       C31       -1
    x87       C180      -1
    x87       C242      -1
    x87       C278      -1
    x90       __OBJ___  537
    x90       C151      -1
    x90       C234      -1
    x94       __OBJ___  264
    x94       C65       -1
    x94       C144      -1
    x94       C327      -1
    x94       C391      -1
    x103      __OBJ___  858
    x103      C1        -1
    x103      C74       -1
    x103      C92       -1
    x103      C330      -1
    x106      __OBJ___  708
    x106      C75       -1
    x106      C99       -1
    x106      C336      -1
    x106      C390      -1
    x109      __OBJ___  294
    x109      C170      -1
    x109      C258      -1
    x113      __OBJ___  557
    x113      C28       -1
    x113      C171      -1
    x116      __OBJ___  762
    x116      C151      -1
    x116      C175      -1
    x117      __OBJ___  44
    x117      C62       -1
    x117      C218      -1
    x117      C386      -1
    x118      __OBJ___  265
    x118      C232      -1
    x118      C325      -1
    x118      C364      -1
    x119      __OBJ___  380
    x119      C46       -1
    x119      C278      -1
    x119      C326      -1
    x121      __OBJ___  64
    x121      C12       -1
    x121      C240      -1
    x122      __OBJ___  108
    x122      C109      -1
    x122      C391      -1
    x122      C394      -1
    x125      __OBJ___  181
    x125      C32       -1
    x125      C220      -1
    x125      C236      -1
    x125      C363      -1
    x129      __OBJ___  762
    x129      C54       -1
    x129      C388      -1
    x134      __OBJ___  189
    x134      C301      -1
    x134      C381      -1
    x135      __OBJ___  345
    x135      C169      -1
    x135      C391      -1
    x136      __OBJ___  461
    x136      C300      -1
    x136      C366      -1
    x138      __OBJ___  990
    x138      C48       -1
    x138      C274      -1
    x138      C331      -1
    x138      C345      -1
    x138      C386      -1
    x139      __OBJ___  251
    x139      C86       -1
    x139      C176      -1
    x139      C238      -1
    x139      C241      -1
    x140      __OBJ___  93
    x140      C209      -1
    x140      C222      -1
    x141      __OBJ___  495
    x141      C238      -1
    x141      C290      -1
    x142      __OBJ___  239
    x142      C140      -1
    x142      C250      -1
    x143      __OBJ___  946
    x143      C184      -1
    x143      C265      -1
    x143      C292      -1
    x146      __OBJ___  601
    x146      C184      -1
    x146      C220      -1
    x146      C234      -1
    x146      C380      -1
    x153      __OBJ___  188
    x153      C218      -1
    x153      C280      -1
    x154      __OBJ___  362
    x154      C234      -1
    x154      C315      -1
    x154      C325      -1
    x154      C357      -1
    x154      C386      -1
    x155      __OBJ___  241
    x155      C242      -1
    x155      C323      -1
    x158      __OBJ___  614
    x158      C109      -1
    x158      C171      -1
    x158      C193      -1
    x160      __OBJ___  260
    x160      C5        -1
    x160      C223      -1
    x160      C325      -1
    x162      __OBJ___  91
    x162      C101      -1
    x162      C380      -1
    x164      __OBJ___  303
    x164      C76       -1
    x164      C276      -1
    x164      C324      -1
    x166      __OBJ___  820
    x166      C142      -1
    x166      C215      -1
    x166      C247      -1
    x166      C360      -1
    x166      C378      -1
    x167      __OBJ___  449
    x167      C206      -1
    x167      C301      -1
    x168      __OBJ___  289
    x168      C6        -1
    x168      C31       -1
    x168      C121      -1
    x170      __OBJ___  124
    x170      C250      -1
    x171      __OBJ___  534
    x171      C90       -1
    x171      C99       -1
    x175      __OBJ___  993
    x175      C75       -1
    x175      C82       -1
    x175      C101      -1
    x175      C152      -1
    x175      C312      -1
    x177      __OBJ___  210
    x177      C61       -1
    x177      C358      -1
    x179      __OBJ___  38
    x179      C203      -1
    x179      C238      -1
    x181      __OBJ___  669
    x181      C118      -1
    x181      C240      -1
    x181      C323      -1
    x182      __OBJ___  197
    x182      C142      -1
    x182      C314      -1
    x182      C391      -1
    x184      __OBJ___  758
    x184      C75       -1
    x184      C121      -1
    x184      C176      -1
    x184      C312      -1
    x186      __OBJ___  399
    x186      C176      -1
    x186      C308      -1
    x188      __OBJ___  309
    x188      C258      -1
    x188      C296      -1
    x188      C393      -1
    x190      __OBJ___  444
    x190      C88       -1
    x190      C175      -1
    x190      C319      -1
    x190      C326      -1
    x190      C327      -1
    x191      __OBJ___  163
    x191      C5        -1
    x191      C48       -1
    x191      C289      -1
    x191      C344      -1
    x191      C391      -1
    x192      __OBJ___  163
    x192      C302      -1
    x192      C383      -1
    x193      __OBJ___  208
    x193      C39       -1
    x193      C88       -1
    x195      __OBJ___  855
    x195      C4        -1
    x195      C31       -1
    x196      __OBJ___  570
    x196      C242      -1
    x196      C369      -1
    x197      __OBJ___  410
    x197      C83       -1
    x197      C90       -1
    x198      __OBJ___  480
    x198      C92       -1
    x198      C164      -1
    x200      __OBJ___  228
    x200      C184      -1
    x202      __OBJ___  252
    x202      C163      -1
    x202      C255      -1
    x202      C309      -1
    x202      C357      -1
    x204      __OBJ___  650
    x204      C62       -1
    x204      C100      -1
    x204      C217      -1
    x204      C368      -1
    x205      __OBJ___  445
    x205      C61       -1
    x205      C145      -1
    x205      C223      -1
    x206      __OBJ___  625
    x206      C12       -1
    x206      C241      -1
    x206      C292      -1
    x208      __OBJ___  47
    x208      C314      -1
    x210      __OBJ___  233
    x210      C178      -1
    x210      C229      -1
    x211      __OBJ___  71
    x211      C14       -1
    x211      C78       -1
    x211      C334      -1
    x212      __OBJ___  255
    x212      C30       -1
    x212      C96       -1
    x215      __OBJ___  2
    x215      C97       -1
    x215      C121      -1
    x215      C220      -1
    x216      __OBJ___  154
    x216      C124      -1
    x216      C149      -1
    x216      C321      -1
    x219      __OBJ___  383
    x219      C276      -1
    x219      C312      -1
    x219      C319      -1
    x220      __OBJ___  61
    x220      C8        -1
    x220      C57       -1
    x220      C274      -1
    x222      __OBJ___  282
    x222      C88       -1
    x222      C144      -1
    x222      C255      -1
    x224      __OBJ___  228
    x224      C152      -1
    x224      C259      -1
    x224      C326      -1
    x225      __OBJ___  319
    x225      C390      -1
    x226      __OBJ___  414
    x226      C9        -1
    x226      C334      -1
    x226      C389      -1
    x227      __OBJ___  641
    x227      C57       -1
    x227      C285      -1
    x227      C292      -1
    x228      __OBJ___  157
    x228      C38       -1
    x228      C348      -1
    x229      __OBJ___  474
    x229      C30       -1
    x229      C160      -1
    x229      C308      -1
    x231      __OBJ___  867
    x231      C50       -1
    x231      C81       -1
    x231      C140      -1
    x231      C319      -1
    x231      C344      -1
    x233      __OBJ___  632
    x233      C75       -1
    x233      C265      -1
    x233      C289      -1
    x233      C340      -1
    x235      __OBJ___  61
    x235      C194      -1
    x235      C364      -1
    x238      __OBJ___  354
    x238      C234      -1
    x238      C266      -1
    x238      C386      -1
    x239      __OBJ___  403
    x239      C52       -1
    x239      C336      -1
    x239      C388      -1
    x240      __OBJ___  396
    x240      C209      -1
    x240      C366      -1
    x241      __OBJ___  603
    x241      C61       -1
    x241      C180      -1
    x241      C184      -1
    x241      C209      -1
    x241      C344      -1
    x243      __OBJ___  176
    x243      C185      -1
    x243      C327      -1
    x246      __OBJ___  406
    x246      C66       -1
    x246      C365      -1
    x247      __OBJ___  689
    x247      C163      -1
    x247      C377      -1
    x247      C389      -1
    x250      __OBJ___  410
    x250      C92       -1
    x250      C171      -1
    x250      C300      -1
    x251      __OBJ___  357
    x251      C82       -1
    x251      C276      -1
    x253      __OBJ___  223
    x253      C86       -1
    x253      C283      -1
    x253      C315      -1
    x256      __OBJ___  136
    x256      C166      -1
    x256      C197      -1
    x256      C352      -1
    x258      __OBJ___  175
    x258      C205      -1
    x258      C212      -1
    x262      __OBJ___  680
    x262      C169      -1
    x262      C215      -1
    x262      C372      -1
    x262      C375      -1
    x265      __OBJ___  678
    x265      C199      -1
    x265      C265      -1
    x266      __OBJ___  233
    x266      C223      -1
    x266      C238      -1
    x270      __OBJ___  114
    x270      C5        -1
    x270      C17       -1
    x270      C81       -1
    x270      C243      -1
    x273      __OBJ___  371
    x273      C65       -1
    x273      C180      -1
    x273      C294      -1
    x273      C388      -1
    x277      __OBJ___  718
    x277      C50       -1
    x277      C210      -1
    x277      C226      -1
    x278      __OBJ___  552
    x278      C294      -1
    x278      C334      -1
    x278      C377      -1
    x278      C392      -1
    x280      __OBJ___  83
    x280      C5        -1
    x280      C197      -1
    x280      C211      -1
    x280      C299      -1
    x282      __OBJ___  855
    x282      C17       -1
    x282      C113      -1
    x282      C193      -1
    x282      C260      -1
    x283      __OBJ___  34
    x283      C113      -1
    x283      C147      -1
    x283      C262      -1
    x285      __OBJ___  209
    x285      C99       -1
    x285      C113      -1
    x286      __OBJ___  862
    x286      C227      -1
    x286      C247      -1
    x286      C300      -1
    x286      C325      -1
    x287      __OBJ___  262
    x287      C227      -1
    x287      C260      -1
    x287      C280      -1
    x296      __OBJ___  623
    x296      C89       -1
    x296      C217      -1
    x296      C386      -1
    x301      __OBJ___  119
    x301      C52       -1
    x301      C78       -1
    x301      C197      -1
    x301      C276      -1
    x314      __OBJ___  261
    x314      C197      -1
    x314      C278      -1
    x315      __OBJ___  389
    x315      C87       -1
    x315      C324      -1
    x320      __OBJ___  469
    x320      C175      -1
    x320      C209      -1
    x320      C226      -1
    x320      C292      -1
    x321      __OBJ___  388
    x321      C212      -1
    x321      C259      -1
    x321      C381      -1
    x323      __OBJ___  158
    x323      C161      -1
    x323      C251      -1
    x326      __OBJ___  243
    x326      C212      -1
    x326      C254      -1
    x326      C302      -1
    x326      C324      -1
    x328      __OBJ___  286
    x328      C74       -1
    x328      C168      -1
    x329      __OBJ___  689
    x329      C76       -1
    x329      C296      -1
    x329      C326      -1
    x331      __OBJ___  162
    x331      C212      -1
    x332      __OBJ___  323
    x332      C344      -1
    x332      C345      -1
    x333      __OBJ___  213
    x333      C164      -1
    x333      C178      -1
    x333      C214      -1
    x336      __OBJ___  44
    x336      C30       -1
    x340      __OBJ___  508
    x340      C6        -1
    x340      C92       -1
    x340      C206      -1
    x341      __OBJ___  286
    x341      C221      -1
    x341      C223      -1
    x342      __OBJ___  3
    x342      C130      -1
    x342      C203      -1
    x342      C341      -1
    x344      __OBJ___  648
    x344      C321      -1
    x344      C389      -1
    x344      C392      -1
    x348      __OBJ___  312
    x348      C52       -1
    x348      C99       -1
    x348      C242      -1
    x349      __OBJ___  138
    x349      C35       -1
    x349      C145      -1
    x349      C215      -1
    x352      __OBJ___  624
    x352      C175      -1
    x352      C210      -1
    x352      C222      -1
    x352      C250      -1
    x353      __OBJ___  418
    x353      C99       -1
    x353      C393      -1
    x355      __OBJ___  442
    x355      C223      -1
    x355      C308      -1
    x355      C348      -1
    x356      __OBJ___  291
    x356      C5        -1
    x356      C180      -1
    x358      __OBJ___  290
    x358      C1        -1
    x358      C169      -1
    x358      C327      -1
    x360      __OBJ___  254
    x360      C146      -1
    x360      C214      -1
    x360      C243      -1
    x364      __OBJ___  792
    x364      C9        -1
    x364      C151      -1
    x364      C392      -1
    x369      __OBJ___  237
    x369      C221      -1
    x369      C319      -1
    x370      __OBJ___  502
    x370      C142      -1
    x370      C163      -1
    x370      C266      -1
    x372      __OBJ___  104
    x372      C74       -1
    x372      C360      -1
    x373      __OBJ___  289
    x373      C127      -1
    x373      C348      -1
    x374      __OBJ___  471
    x374      C8        -1
    x374      C30       -1
    x374      C54       -1
    x374      C175      -1
    x374      C390      -1
    x383      __OBJ___  6
    x383      C211      -1
    x385      __OBJ___  433
    x385      C112      -1
    x385      C144      -1
    x385      C175      -1
    x385      C368      -1
    x386      __OBJ___  254
    x386      C309      -1
    x386      C345      -1
    x392      __OBJ___  527
    x392      C258      -1
    x392      C263      -1
    x392      C273      -1
    x392      C278      -1
    x392      C360      -1
    x393      __OBJ___  11
    x393      C145      -1
    x395      __OBJ___  829
    x395      C3        -1
    x395      C258      -1
    x395      C299      -1
    x396      __OBJ___  332
    x396      C75       -1
    x396      C212      -1
    x396      C236      -1
    x397      __OBJ___  435
    x397      C90       -1
    x397      C118      -1
    x397      C218      -1
    x397      C242      -1
    x398      __OBJ___  400
    x398      C101      -1
    x398      C199      -1
    x398      C278      -1
    x398      C358      -1
    x399      __OBJ___  594
    x399      C170      -1
    x399      C173      -1
    x399      C290      -1
    x400      __OBJ___  947
    x400      C34       -1
    x400      C140      -1
    x400      C215      -1
    x400      C259      -1
    x400      C372      -1
    MARKER    'MARKER'                 'INTEND'
RHS
    RHS       __OBJ___  -18853
    RHS       C1        -1
    RHS       C3        -1
    RHS       C4        -1
    RHS       C5        -1
    RHS       C6        -1
    RHS       C8        -1
    RHS       C9        -1
    RHS       C12       -1
    RHS       C14       -1
    RHS       C17       -1
    RHS       C28       -1
    RHS       C30       -1
    RHS       C31       -1
    RHS       C32       -1
    RHS       C34       -1
    RHS       C35       -1
    RHS       C38       -1
    RHS       C39       -1
    RHS       C46       -1
    RHS       C48       -1
    RHS       C50       -1
    RHS       C52       -1
    RHS       C54       -1
    RHS       C57       -1
    RHS       C61       -1
    RHS       C62       -1
    RHS       C65       -1
    RHS       C66       -1
    RHS       C74       -1
    RHS       C75       -1
    RHS       C76       -1
    RHS       C78       -1
    RHS       C81       -1
    RHS       C82       -1
    RHS       C83       -1
    RHS       C86       -1
    RHS       C87       -1
    RHS       C88       -1
    RHS       C89       -1
    RHS       C90       -1
    RHS       C92       -1
    RHS       C96       -1
    RHS       C97       -1
    RHS       C99       -1
    RHS       C100      -1
    RHS       C101      -1
    RHS       C109      -1
    RHS       C112      -1
    RHS       C113      -1
    RHS       C118      -1
    RHS       C121      -1
    RHS       C124      -1
    RHS       C127      -1
    RHS       C130      -1
    RHS       C140      -1
    RHS       C142      -1
    RHS       C144      -1
    RHS       C145      -1
    RHS       C146      -1
    RHS       C147      -1
    RHS       C149      -1
    RHS       C151      -1
    RHS       C152      -1
    RHS       C160      -1
    RHS       C161      -1
    RHS       C163      -1
    RHS       C164      -1
    RHS       C166      -1
    RHS       C168      -1
    RHS       C169      -1
    RHS       C170      -1
    RHS       C171      -1
    RHS       C173      -1
    RHS       C175      -1
    RHS       C176      -1
    RHS       C178      -1
    RHS       C180      -1
    RHS       C184      -1
    RHS       C185      -1
    RHS       C193      -1
    RHS       C194      -1
    RHS       C197      -1
    RHS       C199      -1
    RHS       C203      -1
    RHS       C205      -1
    RHS       C206      -1
    RHS       C209      -1
    RHS       C210      -1
    RHS       C211      -1
    RHS       C212      -1
    RHS       C214      -1
    RHS       C215      -1
    RHS       C217      -1
    RHS       C218      -1
    RHS       C220      -1
    RHS       C221      -1
    RHS       C222      -1
    RHS       C223      -1
    RHS       C226      -1
    RHS       C227      -1
    RHS       C229      -1
    RHS       C232      -1
    RHS       C234      -1
    RHS       C236      -1
    RHS       C238      -1
    RHS       C240      -1
    RHS       C241      -1
    RHS       C242      -1
    RHS       C243      -1
    RHS       C247      -1
    RHS       C250      -1
    RHS       C251      -1
    RHS       C254      -1
    RHS       C255      -1
    RHS       C258      -1
    RHS       C259      -1
    RHS       C260      -1
    RHS       C262      -1
    RHS       C263      -1
    RHS       C265      -1
    RHS       C266      -1
    RHS       C273      -1
    RHS       C274      -1
    RHS       C276      -1
    RHS       C278      -1
    RHS       C280      -1
    RHS       C283      -1
    RHS       C285      -1
    RHS       C289      -1
    RHS       C290      -1
    RHS       C292      -1
    RHS       C294      -1
    RHS       C296      -1
    RHS       C299      -1
    RHS       C300      -1
    RHS       C301      -1
    RHS       C302      -1
    RHS       C308      -1
    RHS       C309      -1
    RHS       C312      -1
    RHS       C314      -1
    RHS       C315      -1
    RHS       C319      -1
    RHS       C321      -1
    RHS       C323      -1
    RHS       C324      -1
    RHS       C325      -1
    RHS       C326      -1
    RHS       C327      -1
    RHS       C330      -1
    RHS       C331      -1
    RHS       C334      -1
    RHS       C336      -1
    RHS       C340      -1
    RHS       C341      -1
    RHS       C344      -1
    RHS       C345      -1
    RHS       C348      -1
    RHS       C352      -1
    RHS       C357      -1
    RHS       C358      -1
    RHS       C360      -1
    RHS       C363      -1
    RHS       C364      -1
    RHS       C365      -1
    RHS       C366      -1
    RHS       C368      -1
    RHS       C369      -1
    RHS       C372      -1
    RHS       C375      -1
    RHS       C377      -1
    RHS       C378      -1
    RHS       C380      -1
    RHS       C381      -1
    RHS       C383      -1
    RHS       C386      -1
    RHS       C388      -1
    RHS       C389      -1
    RHS       C390      -1
    RHS       C391      -1
    RHS       C392      -1
    RHS       C393      -1
    RHS       C394      -1
BOUNDS
 UP BOUND     x4        1
 UP BOUND     x9        1
 UP BOUND     x14       1
 UP BOUND     x15       1
 UP BOUND     x16       1
 UP BOUND     x17       1
 UP BOUND     x18       1
 UP BOUND     x20       1
 UP BOUND     x24       1
 UP BOUND     x25       1
 UP BOUND     x26       1
 UP BOUND     x27       1
 UP BOUND     x28       1
 UP BOUND     x32       1
 UP BOUND     x33       1
 UP BOUND     x41       1
 UP BOUND     x44       1
 UP BOUND     x45       1
 UP BOUND     x46       1
 UP BOUND     x47       1
 UP BOUND     x48       1
 UP BOUND     x50       1
 UP BOUND     x51       1
 UP BOUND     x53       1
 UP BOUND     x54       1
 UP BOUND     x59       1
 UP BOUND     x61       1
 UP BOUND     x66       1
 UP BOUND     x67       1
 UP BOUND     x69       1
 UP BOUND     x70       1
 UP BOUND     x72       1
 UP BOUND     x73       1
 UP BOUND     x74       1
 UP BOUND     x76       1
 UP BOUND     x79       1
 UP BOUND     x80       1
 UP BOUND     x82       1
 UP BOUND     x84       1
 UP BOUND     x87       1
 UP BOUND     x90       1
 UP BOUND     x94       1
 UP BOUND     x103      1
 UP BOUND     x106      1
 UP BOUND     x109      1
 UP BOUND     x113      1
 UP BOUND     x116      1
 UP BOUND     x117      1
 UP BOUND     x118      1
 UP BOUND     x119      1
 UP BOUND     x121      1
 UP BOUND     x122      1
 UP BOUND     x125      1
 UP BOUND     x129      1
 UP BOUND     x134      1
 UP BOUND     x135      1
 UP BOUND     x136      1
 UP BOUND     x138      1
 UP BOUND     x139      1
 UP BOUND     x140      1
 UP BOUND     x141      1
 UP BOUND     x142      1
 UP BOUND     x143      1
 UP BOUND     x146      1
 UP BOUND     x153      1
 UP BOUND     x154      1
 UP BOUND     x155      1
 UP BOUND     x158      1
 UP BOUND     x160      1
 UP BOUND     x162      1
 UP BOUND     x164      1
 UP BOUND     x166      1
 UP BOUND     x167      1
 UP BOUND     x168      1
 UP BOUND     x170      1
 UP BOUND     x171      1
 UP BOUND     x175      1
 UP BOUND     x177      1
 UP BOUND     x179      1
 UP BOUND     x181      1
 UP BOUND     x182      1
 UP BOUND     x184      1
 UP BOUND     x186      1
 UP BOUND     x188      1
 UP BOUND     x190      1
 UP BOUND     x191      1
 UP BOUND     x192      1
 UP BOUND     x193      1
 UP BOUND     x195      1
 UP BOUND     x196      1
 UP BOUND     x197      1
 UP BOUND     x198      1
 UP BOUND     x200      1
 UP BOUND     x202      1
 UP BOUND     x204      1
 UP BOUND     x205      1
 UP BOUND     x206      1
 UP BOUND     x208      1
 UP BOUND     x210      1
 UP BOUND     x211      1
 UP BOUND     x212      1
 UP BOUND     x215      1
 UP BOUND     x216      1
 UP BOUND     x219      1
 UP BOUND     x220      1
 UP BOUND     x222      1
 UP BOUND     x224      1
 UP BOUND     x225      1
 UP BOUND     x226      1
 UP BOUND     x227      1
 UP BOUND     x228      1
 UP BOUND     x229      1
 UP BOUND     x231      1
 UP BOUND     x233      1
 UP BOUND     x235      1
 UP BOUND     x238      1
 UP BOUND     x239      1
 UP BOUND     x240      1
 UP BOUND     x241      1
 UP BOUND     x243      1
 UP BOUND     x246      1
 UP BOUND     x247      1
 UP BOUND     x250      1
 UP BOUND     x251      1
 UP BOUND     x253      1
 UP BOUND     x256      1
 UP BOUND     x258      1
 UP BOUND     x262      1
 UP BOUND     x265      1
 UP BOUND     x266      1
 UP BOUND     x270      1
 UP BOUND     x273      1
 UP BOUND     x277      1
 UP BOUND     x278      1
 UP BOUND     x280      1
 UP BOUND     x282      1
 UP BOUND     x283      1
 UP BOUND     x285      1
 UP BOUND     x286      1
 UP BOUND     x287      1
 UP BOUND     x296      1
 UP BOUND     x301      1
 UP BOUND     x314      1
 UP BOUND     x315      1
 UP BOUND     x320      1
 UP BOUND     x321      1
 UP BOUND     x323      1
 UP BOUND     x326      1
 UP BOUND     x328      1
 UP BOUND     x329      1
 UP BOUND     x331      1
 UP BOUND     x332      1
 UP BOUND     x333      1
 UP BOUND     x336      1
 UP BOUND     x340      1
 UP BOUND     x341      1
 UP BOUND     x342      1
 UP BOUND     x344      1
 UP BOUND     x348      1
 UP BOUND     x349      1
 UP BOUND     x352      1
 UP BOUND     x353      1
 UP BOUND     x355      1
 UP BOUND     x356      1
 UP BOUND     x358      1
 UP BOUND     x360      1
 UP BOUND     x364      1
 UP BOUND     x369      1
 UP BOUND     x370      1
 UP BOUND     x372      1
 UP BOUND     x373      1
 UP BOUND     x374      1
 UP BOUND     x383      1
 UP BOUND     x385      1
 UP BOUND     x386      1
 UP BOUND     x392      1
 UP BOUND     x393      1
 UP BOUND     x395      1
 UP BOUND     x396      1
 UP BOUND     x397      1
 UP BOUND     x398      1
 UP BOUND     x399      1
 UP BOUND     x400      1
ENDATA
